50
13071

374 137
559 465
556 903
656 886
583 581
294 692
64 359
606 628
784 572
628 222
653 455
142 95
567 633
248 267
35 267
328 32
708 180
458 931
860 18
676 788
536 114
859 407
704 748
673 270
385 133
685 555
156 562
46 429
941 981
173 436
929 648
356 455
2 595
429 697
902 937
149 187
299 503
204 877
985 370
246 692
727 232
363 338
681 495
70 482
306 643
163 116
646 977
452 956
653 591
465 59
